benchmarks_vrp/CMT11/no_cluster/CMT11_7.vrp
NAME: CMT11_7
TYPE: CVRP
COMMENT: 1042.11 - Cluster Nr.7
DIMENSION: 3
CAPACITY: 200
EDGE_WEIGHT_TYPE: EUC_2D
NODE_COORD_TYPE: TWOD_COORDS
NODE_COORD_SECTION: 
1 10 45
3 95 80
2 99 89
DEPOT_SECTION: 
1
-1
DEMAND_SECTION: 
3 17
1 0
2 13
EOF
