benchmarks_vrp/CMT11/no_cluster/CMT11_7.tour
NAME: CMT11_7 solution
TYPE: TOUR
TOUR_SECTION:
1 2 3 -1
-1
EOF